
Gurobi 8.0.1 (win64, Python) logging started 07/02/20 11:11:00

Academic license - for non-commercial use only
Read LP format model from file C:\Users\stevo\AppData\Local\Temp\tmphj2lqdmc.pyomo.lp
Reading time = 50.56 seconds
x4257546: 5028438 rows, 4257546 columns, 13210354 nonzeros
Optimize a model with 5028438 rows, 4257546 columns and 13210354 nonzeros
Coefficient statistics:
  Matrix range     [1e-04, 1e+03]
  Objective range  [1e+00, 1e+06]
  Bounds range     [0e+00, 0e+00]
  RHS range        [2e-03, 1e+11]
Warning: Model contains large rhs
         Consider reformulating model or setting NumericFocus parameter
         to avoid numerical issues.

Concurrent LP optimizer: dual simplex and barrier
Showing barrier log only...

Presolve removed 0 rows and 0 columns (presolve time = 10s) ...
Presolve removed 3679410 rows and 1647070 columns (presolve time = 16s) ...
Presolve removed 3682260 rows and 1720000 columns (presolve time = 22s) ...
Presolve removed 4432810 rows and 2470550 columns (presolve time = 27s) ...
Presolve removed 4432810 rows and 2663270 columns (presolve time = 30s) ...
Presolve removed 4537924 rows and 2663270 columns
Presolve time: 36.27s
Presolved: 490514 rows, 1699390 columns, 2610374 nonzeros

Ordering time: 0.40s

Barrier statistics:
 AA' NZ     : 9.460e+05
 Factor NZ  : 9.734e+06 (roughly 1.0 GBytes of memory)
 Factor Ops : 3.265e+08 (less than 1 second per iteration)
 Threads    : 1

                  Objective                Residual
Iter       Primal          Dual         Primal    Dual     Compl     Time
   0   1.85895554e+22 -2.01287598e+21  2.15e+10 0.00e+00  2.06e+16    42s
   1   2.17654962e+21 -6.84945587e+20  2.08e+09 1.12e-08  2.20e+15    45s
   2   6.67877626e+20 -1.44644465e+20  5.86e+08 1.08e-07  6.12e+14    48s
   3   1.12167606e+20 -2.13272346e+19  8.48e+07 1.97e-07  9.28e+13    51s
   4   1.17125601e+19 -3.36078405e+18  8.37e+06 4.28e-07  9.73e+12    55s
   5   6.94326362e+17 -9.35335925e+17  4.97e+05 5.12e-08  8.04e+11    59s
   6   1.00121008e+17 -5.50731853e+17  6.68e+04 2.49e-08  2.51e+11    62s
   7   1.82876640e+16 -1.17751820e+17  1.04e+04 1.49e-08  4.88e+10    66s
   8   2.09109694e+15 -1.43379497e+16  8.44e+02 1.49e-08  5.70e+09    68s
   9   2.40358491e+12 -2.19097651e+13  3.06e-01 1.49e-08  8.36e+06    70s
  10   4.62213571e+10 -2.39125584e+11  9.20e-02 1.49e-08  9.81e+04    73s
  11   4.04779147e+10 -7.60210068e+10  3.24e-03 7.10e-06  4.02e+04    75s
  12   3.91447404e+10  1.94274510e+10  2.00e-03 1.17e-05  6.98e+03    77s
  13   3.74390178e+10  2.99421446e+10  5.73e-04 2.06e-05  2.83e+03    79s
  14   3.66065834e+10  3.62345025e+10  1.61e-04 3.17e-05  4.03e+02    82s
  15   3.63531999e+10  3.68936839e+10  5.09e-05 3.89e-05  1.09e+02    84s
  16   3.63211704e+10  3.69490480e+10  3.66e-05 3.83e-05  7.90e+01    86s
  17   3.62697417e+10  3.70315140e+10  2.49e-05 3.79e-05  3.38e+01    88s
  18   3.62573192e+10  3.70567755e+10  2.07e-05 3.72e-05  2.10e+01    90s
  19   3.62414460e+10  3.70759855e+10  1.35e-05 3.62e-05  9.93e+00    92s
  20   3.62351186e+10  3.70803350e+10  7.87e-06 3.47e-05  6.33e+00    94s
  21   3.62337503e+10  3.70814883e+10  6.91e-06 3.37e-05  5.24e+00    97s
  22   3.62320204e+10  3.70822637e+10  5.84e-06 3.28e-05  4.23e+00    99s
  23   3.62305048e+10  3.70824746e+10  4.89e-06 3.24e-05  3.65e+00   101s
  24   3.62290171e+10  3.70825657e+10  4.17e-06 3.15e-05  2.96e+00   103s
  25   3.62277044e+10  3.70824871e+10  3.58e-06 3.11e-05  2.52e+00   105s
  26   3.62257696e+10  3.70821762e+10  2.86e-06 3.04e-05  1.96e+00   107s
  27   3.62256475e+10  3.70820337e+10  3.81e-06 3.01e-05  1.89e+00   109s
  28   3.62251530e+10  3.70817372e+10  3.24e-06 2.98e-05  1.74e+00   111s
  29   3.62247832e+10  3.70816742e+10  3.43e-06 2.97e-05  1.67e+00   113s
  30   3.62246059e+10  3.70814462e+10  3.43e-06 2.94e-05  1.58e+00   115s
  31   3.62235331e+10  3.70810398e+10  3.43e-06 2.90e-05  1.36e+00   117s
  32   3.62231855e+10  3.70808340e+10  3.81e-06 2.88e-05  1.28e+00   119s
  33   3.62226251e+10  3.70801640e+10  3.43e-06 2.82e-05  1.09e+00   122s
  34   3.62221861e+10  3.70797606e+10  3.81e-06 2.79e-05  9.92e-01   125s
  35   3.62217612e+10  3.70791712e+10  3.81e-06 2.75e-05  8.82e-01   127s
  36   3.62216040e+10  3.70790717e+10  4.39e-06 2.75e-05  8.57e-01   129s
  37   3.62213793e+10  3.70789927e+10  4.39e-06 2.74e-05  8.27e-01   131s
  38   3.62211624e+10  3.70787431e+10  4.77e-06 2.72e-05  7.84e-01   133s
  39   3.62202090e+10  3.70779788e+10  3.81e-06 2.67e-05  6.39e-01   135s
  40   3.62200039e+10  3.70775008e+10  3.81e-06 2.64e-05  5.85e-01   137s
  41   3.62198279e+10  3.70771780e+10  3.81e-06 2.62e-05  5.51e-01   140s
  42   3.62195674e+10  3.70770253e+10  3.81e-06 2.61e-05  5.23e-01   141s
  43   3.62194493e+10  3.70768792e+10  4.39e-06 2.60e-05  5.07e-01   143s
  44   3.62193393e+10  3.70767915e+10  4.20e-06 2.60e-05  4.94e-01   145s
  45   3.62192196e+10  3.70763758e+10  4.39e-06 2.57e-05  4.63e-01   148s
  46   3.62189223e+10  3.70759672e+10  4.39e-06 2.55e-05  4.22e-01   150s
  47   3.62187533e+10  3.70757921e+10  4.77e-06 2.54e-05  4.02e-01   153s
  48   3.62186533e+10  3.70756279e+10  4.77e-06 2.53e-05  3.88e-01   155s
  49   3.62185286e+10  3.70755066e+10  5.15e-06 2.52e-05  3.76e-01   156s
  50   3.62184349e+10  3.70753780e+10  5.15e-06 2.52e-05  3.65e-01   158s
  51   3.62183188e+10  3.70750739e+10  5.15e-06 2.50e-05  3.48e-01   161s
  52   3.62181061e+10  3.70747661e+10  5.15e-06 2.48e-05  3.24e-01   164s
  53   3.62179625e+10  3.70746213e+10  5.15e-06 2.48e-05  3.11e-01   166s
  54   3.62178362e+10  3.70744871e+10  5.15e-06 2.47e-05  3.00e-01   168s
  55   3.62177527e+10  3.70743694e+10  5.34e-06 2.46e-05  2.92e-01   169s
  56   3.62176236e+10  3.70742539e+10  6.10e-06 2.45e-05  2.83e-01   171s
  57   3.62175157e+10  3.70740424e+10  6.10e-06 2.44e-05  2.72e-01   173s
  58   3.62173910e+10  3.70739011e+10  7.06e-06 2.44e-05  2.62e-01   175s
  59   3.62172358e+10  3.70737760e+10  6.10e-06 2.43e-05  2.51e-01   177s
  60   3.62171420e+10  3.70736009e+10  7.06e-06 2.42e-05  2.43e-01   179s
  61   3.62170364e+10  3.70734502e+10  6.10e-06 2.41e-05  2.35e-01   181s
  62   3.62169331e+10  3.70733372e+10  6.10e-06 2.41e-05  2.28e-01   182s
  63   3.62168361e+10  3.70732111e+10  6.10e-06 2.40e-05  2.21e-01   185s
  64   3.62167342e+10  3.70729619e+10  6.29e-06 2.39e-05  2.12e-01   189s
  65   3.62166302e+10  3.70727399e+10  6.10e-06 2.38e-05  2.03e-01   192s
  66   3.62165308e+10  3.70726485e+10  6.29e-06 2.37e-05  1.98e-01   195s
  67   3.62164406e+10  3.70725670e+10  6.10e-06 2.37e-05  1.93e-01   197s
  68   1.85895554e+22 -2.01287598e+21  2.15e+10 0.00e+00  2.06e+16   201s
  69   1.01714332e+22 -1.96628137e+21  2.06e+09 1.12e-08  6.85e+15   204s
  70   3.10222995e+21 -4.71194876e+20  5.87e+08 2.24e-08  1.96e+15   208s
  71   7.49412862e+20 -8.99967415e+19  1.36e+08 1.12e-07  4.56e+14   210s
  72   1.27098694e+20 -1.71605191e+19  2.21e+07 6.59e-07  7.64e+13   212s
  73   1.20494200e+19 -4.79241050e+18  2.23e+06 4.58e-07  8.36e+12   214s
  74   1.00489576e+18 -1.01081446e+18  1.75e+05 2.01e-07  8.52e+11   217s
  75   2.17202609e+17 -7.12274999e+17  3.73e+04 1.29e-07  3.48e+11   219s
  76   3.95741489e+16 -1.60413870e+17  5.26e+03 2.33e-08  7.05e+10   221s
  77   4.28539369e+15 -1.10625324e+16  3.89e+02 1.49e-08  5.32e+09   224s
  78   4.64141565e+12 -1.66782472e+13  1.55e-01 1.86e-08  7.33e+06   226s
  79   4.42051492e+10 -3.32033400e+11  9.61e-02 1.49e-08  1.29e+05   228s
  80   4.01326194e+10 -8.27133201e+10  2.06e-02 5.14e-06  4.24e+04   230s
  81   3.88383047e+10  1.30532013e+10  4.54e-03 8.45e-06  9.02e+03   232s
  82   3.73193356e+10  3.37892287e+10  8.26e-04 2.00e-05  1.45e+03   235s
  83   3.65258487e+10  3.65667134e+10  1.52e-04 2.50e-05  2.61e+02   237s
  84   3.63038834e+10  3.69253164e+10  4.56e-05 2.66e-05  7.93e+01   240s
  85   3.62655609e+10  3.70088260e+10  3.22e-05 2.66e-05  4.04e+01   242s
  86   3.62379522e+10  3.70444542e+10  1.62e-05 2.71e-05  2.10e+01   244s
  87   3.62210494e+10  3.70534006e+10  1.05e-05 2.70e-05  1.31e+01   246s
  88   3.62179222e+10  3.70619422e+10  9.66e-06 2.66e-05  9.44e+00   248s
  89   3.62077700e+10  3.70661358e+10  6.08e-06 2.59e-05  4.83e+00   252s
  90   3.62045096e+10  3.70659282e+10  4.53e-06 2.52e-05  3.43e+00   254s
  91   3.62037311e+10  3.70651735e+10  4.29e-06 2.49e-05  3.06e+00   257s
  92   3.62018429e+10  3.70647110e+10  3.34e-06 2.48e-05  2.52e+00   259s
  93   3.62013784e+10  3.70638190e+10  3.10e-06 2.44e-05  2.28e+00   262s
  94   3.62008617e+10  3.70632441e+10  3.24e-06 2.42e-05  2.12e+00   264s
  95   3.62006733e+10  3.70626865e+10  3.43e-06 2.40e-05  2.02e+00   268s
  96   3.61992360e+10  3.70615311e+10  3.43e-06 2.38e-05  1.63e+00   271s
  97   3.61990498e+10  3.70602727e+10  3.43e-06 2.35e-05  1.53e+00   274s
  98   3.61986410e+10  3.70591730e+10  3.81e-06 2.35e-05  1.41e+00   277s
  99   3.61983324e+10  3.70578117e+10  3.81e-06 2.33e-05  1.32e+00   279s
 100   3.61979092e+10  3.70565410e+10  3.81e-06 2.30e-05  1.20e+00   282s
 101   3.61969374e+10  3.70551242e+10  3.43e-06 2.28e-05  9.79e-01   285s
 102   3.61967231e+10  3.70538462e+10  3.81e-06 2.26e-05  9.14e-01   288s
 103   3.61965024e+10  3.70532583e+10  3.81e-06 2.25e-05  8.67e-01   291s
 104   3.61963184e+10  3.70528192e+10  4.39e-06 2.24e-05  8.29e-01   294s
 105   3.61962457e+10  3.70525103e+10  4.39e-06 2.24e-05  8.12e-01   296s
 106   3.61960551e+10  3.70515926e+10  4.39e-06 2.22e-05  7.66e-01   298s
 107   3.61958134e+10  3.70507891e+10  4.39e-06 2.21e-05  7.14e-01   300s
 108   3.61957034e+10  3.70503767e+10  4.77e-06 2.20e-05  6.91e-01   302s
 109   3.61955405e+10  3.70498281e+10  4.77e-06 2.19e-05  6.59e-01   304s
 110   3.61954023e+10  3.70494513e+10  5.15e-06 2.19e-05  6.35e-01   306s
 111   3.61953008e+10  3.70489141e+10  5.15e-06 2.18e-05  6.13e-01   308s
 112   3.61951785e+10  3.70484104e+10  5.34e-06 2.17e-05  5.89e-01   310s
 113   3.61950977e+10  3.70478177e+10  5.34e-06 2.17e-05  5.70e-01   314s
 114   3.61949718e+10  3.70469756e+10  5.15e-06 2.14e-05  5.43e-01   316s
 115   3.61948497e+10  3.70468202e+10  5.72e-06 2.14e-05  5.26e-01   317s
 116   3.61947963e+10  3.70464857e+10  6.10e-06 2.14e-05  5.15e-01   319s
 117   3.61947165e+10  3.70461660e+10  6.10e-06 2.13e-05  5.01e-01   321s
 118   3.61946368e+10  3.70459220e+10  6.10e-06 2.13e-05  4.88e-01   323s
 119   3.61945857e+10  3.70456364e+10  6.10e-06 2.13e-05  4.79e-01   326s
 120   3.61944596e+10  3.70450823e+10  6.10e-06 2.11e-05  4.57e-01   328s
 121   3.61943627e+10  3.70447743e+10  7.06e-06 2.10e-05  4.43e-01   331s
 122   3.61942242e+10  3.70444113e+10  6.10e-06 2.10e-05  4.24e-01   333s
 123   3.61941414e+10  3.70440420e+10  6.10e-06 2.09e-05  4.11e-01   335s
 124   3.61939285e+10  3.70435606e+10  5.34e-06 2.08e-05  3.81e-01   337s
 125   3.61938174e+10  3.70433429e+10  5.72e-06 2.07e-05  3.67e-01   340s
 126   3.61937865e+10  3.70430924e+10  6.29e-06 2.07e-05  3.61e-01   342s
 127   3.61937137e+10  3.70429574e+10  6.29e-06 2.06e-05  3.53e-01   344s
 128   3.61936157e+10  3.70426668e+10  6.29e-06 2.06e-05  3.40e-01   346s
 129   3.61935540e+10  3.70424567e+10  6.29e-06 2.05e-05  3.33e-01   347s
 130   3.61935140e+10  3.70422156e+10  6.29e-06 2.04e-05  3.27e-01   349s
 131   3.61934636e+10  3.70417356e+10  6.10e-06 2.03e-05  3.19e-01   352s
 132   3.61933766e+10  3.70413870e+10  7.06e-06 2.02e-05  3.09e-01   354s
 133   3.61933721e+10  3.70413124e+10  6.29e-06 2.02e-05  3.08e-01   356s
 134   3.61933494e+10  3.70411770e+10  6.29e-06 2.02e-05  3.05e-01   358s
 135   3.61933344e+10  3.70411261e+10  6.29e-06 2.02e-05  3.11e-01   360s
 136   3.61933153e+10  3.70408953e+10  7.06e-06 2.02e-05  3.08e-01   362s
 137   3.61932935e+10  3.70406465e+10  7.06e-06 2.02e-05  3.05e-01   365s
 138   3.61932569e+10  3.70403995e+10  7.06e-06 2.01e-05  3.00e-01   367s
 139   3.61932378e+10  3.70403169e+10  7.06e-06 2.01e-05  2.98e-01   368s
 140   3.61932292e+10  3.70401735e+10  7.06e-06 2.01e-05  2.96e-01   370s
 141   3.61931487e+10  3.70380192e+10  7.06e-06 1.99e-05  2.80e-01   377s
 142   3.61931134e+10  3.70377849e+10  8.01e-06 1.99e-05  2.77e-01   380s
 143   3.61930779e+10  3.70370206e+10  7.25e-06 1.98e-05  2.70e-01   385s
 144   3.61930526e+10  3.70367150e+10  7.25e-06 1.97e-05  2.67e-01   388s
 145   3.61930496e+10  3.70366765e+10  7.06e-06 1.97e-05  2.67e-01   391s
 146   3.61929996e+10  3.70360144e+10  7.63e-06 1.97e-05  2.60e-01   395s
 147   3.61929785e+10  3.70358415e+10  7.25e-06 1.96e-05  2.58e-01   398s
 148   3.61929584e+10  3.70355425e+10  7.63e-06 1.96e-05  2.55e-01   400s
 149   3.61929461e+10  3.70353982e+10  8.01e-06 1.96e-05  2.53e-01   402s
 150   3.61929238e+10  3.70351399e+10  8.20e-06 1.95e-05  2.50e-01   404s
 151   3.61929093e+10  3.70349087e+10  7.63e-06 1.95e-05  2.48e-01   405s
 152   3.61928942e+10  3.70346727e+10  8.01e-06 1.95e-05  2.46e-01   408s
 153   3.61928795e+10  3.70345241e+10  8.58e-06 1.95e-05  2.44e-01   410s
 154   3.61928645e+10  3.70344240e+10  8.58e-06 1.94e-05  2.43e-01   411s
 155   3.61928583e+10  3.70343725e+10  8.58e-06 1.94e-05  2.42e-01   413s
 156   3.61928077e+10  3.70338924e+10  8.96e-06 1.93e-05  2.36e-01   419s
 157   3.61927666e+10  3.70335228e+10  8.96e-06 1.93e-05  2.31e-01   424s
 158   3.61926869e+10  3.70328634e+10  9.16e-06 1.92e-05  2.21e-01   430s
 159   3.61926557e+10  3.70327132e+10  8.96e-06 1.92e-05  2.18e-01   433s
 160   3.61926287e+10  3.70323348e+10  9.16e-06 1.91e-05  2.14e-01   437s
 161   3.61925998e+10  3.70320517e+10  8.20e-06 1.91e-05  2.11e-01   439s
 162   3.61925845e+10  3.70319303e+10  9.16e-06 1.90e-05  2.09e-01   441s
 163   3.61925712e+10  3.70318365e+10  9.16e-06 1.90e-05  2.08e-01   444s
 164   3.61925236e+10  3.70315477e+10  9.16e-06 1.90e-05  2.03e-01   445s
 165   3.61924914e+10  3.70313443e+10  8.58e-06 1.89e-05  2.00e-01   447s
 166   3.61924632e+10  3.70312046e+10  8.58e-06 1.89e-05  1.98e-01   449s
 167   3.61924560e+10  3.70311683e+10  8.58e-06 1.89e-05  1.97e-01   450s
 168   3.61924362e+10  3.70310371e+10  8.58e-06 1.89e-05  1.95e-01   452s
 169   3.61924017e+10  3.70310223e+10  8.58e-06 1.89e-05  1.93e-01   453s
 170   3.61923918e+10  3.70308545e+10  9.54e-06 1.88e-05  1.91e-01   455s
 171   3.61923765e+10  3.70305925e+10  9.54e-06 1.88e-05  1.89e-01   456s
 172   3.61923627e+10  3.70304634e+10  9.54e-06 1.88e-05  1.88e-01   458s
 173   3.61923484e+10  3.70303394e+10  9.54e-06 1.88e-05  1.86e-01   460s
 174   3.61923362e+10  3.70302159e+10  9.54e-06 1.88e-05  1.85e-01   461s
 175   3.61923249e+10  3.70299843e+10  9.16e-06 1.87e-05  1.84e-01   463s
 176   3.61922918e+10  3.70298377e+10  9.92e-06 1.87e-05  1.81e-01   465s
 177   3.61922794e+10  3.70297684e+10  9.92e-06 1.86e-05  1.80e-01   466s
 178   3.61922607e+10  3.70296802e+10  1.01e-05 1.86e-05  1.78e-01   468s
 179   3.61922553e+10  3.70296488e+10  9.54e-06 1.86e-05  1.78e-01   469s
 180   3.61922443e+10  3.70295828e+10  1.01e-05 1.86e-05  1.77e-01   471s
 181   3.61922253e+10  3.70293855e+10  1.01e-05 1.86e-05  1.75e-01   473s
 182   3.61922168e+10  3.70293564e+10  9.54e-06 1.86e-05  1.74e-01   474s
 183   3.61922062e+10  3.70293372e+10  1.01e-05 1.86e-05  1.73e-01   476s
 184   3.61921805e+10  3.70288904e+10  9.54e-06 1.85e-05  1.70e-01   480s
 185   3.61921525e+10  3.70286874e+10  9.54e-06 1.85e-05  1.68e-01   484s
 186   3.61921419e+10  3.70285673e+10  9.54e-06 1.84e-05  1.67e-01   488s
 187   3.61920913e+10  3.70283259e+10  9.54e-06 1.84e-05  1.62e-01   492s
 188   3.61920791e+10  3.70282132e+10  1.01e-05 1.84e-05  1.61e-01   495s
 189   3.61920569e+10  3.70280723e+10  1.05e-05 1.83e-05  1.59e-01   498s
 190   3.61920338e+10  3.70277946e+10  9.54e-06 1.83e-05  1.57e-01   501s
 191   3.61920257e+10  3.70277202e+10  1.05e-05 1.83e-05  1.56e-01   503s
 192   3.61920097e+10  3.70276338e+10  1.05e-05 1.83e-05  1.55e-01   505s
 193   3.61919987e+10  3.70275464e+10  1.05e-05 1.82e-05  1.54e-01   507s
 194   3.61919751e+10  3.70274996e+10  1.09e-05 1.82e-05  1.52e-01   508s
 195   3.61919640e+10  3.70274848e+10  1.05e-05 1.82e-05  1.51e-01   509s
 196   3.61919585e+10  3.70274696e+10  1.14e-05 1.82e-05  1.51e-01   511s
 197   3.61919114e+10  3.70272871e+10  1.14e-05 1.81e-05  1.47e-01   514s
 198   3.61919056e+10  3.70272365e+10  1.11e-05 1.81e-05  1.46e-01   518s
 199   3.61918657e+10  3.70271175e+10  1.05e-05 1.81e-05  1.43e-01   521s
 200   3.61918581e+10  3.70271023e+10  1.05e-05 1.81e-05  1.43e-01   524s
 201   3.61918539e+10  3.70270722e+10  1.05e-05 1.81e-05  1.43e-01   526s
 202   3.61918378e+10  3.70269206e+10  1.11e-05 1.80e-05  1.41e-01   530s
 203   3.61918267e+10  3.70268007e+10  1.11e-05 1.80e-05  1.40e-01   532s
 204   3.61917948e+10  3.70265034e+10  1.05e-05 1.79e-05  1.37e-01   535s
 205   3.61917904e+10  3.70262941e+10  1.05e-05 1.79e-05  1.37e-01   537s
 206   3.61917876e+10  3.70263005e+10  1.11e-05 1.79e-05  1.36e-01   540s
 207   3.61917746e+10  3.70261350e+10  1.09e-05 1.78e-05  1.35e-01   543s
 208   3.61917521e+10  3.70260244e+10  1.05e-05 1.79e-05  1.33e-01   546s
 209   3.61917325e+10  3.70257517e+10  1.05e-05 1.78e-05  1.32e-01   551s
 210   3.61917005e+10  3.70254522e+10  1.09e-05 1.77e-05  1.29e-01   557s
 211   3.61916816e+10  3.70253141e+10  1.09e-05 1.77e-05  1.27e-01   561s
 212   3.61916724e+10  3.70251731e+10  1.01e-05 1.76e-05  1.26e-01   563s
 213   3.61916639e+10  3.70250954e+10  1.05e-05 1.76e-05  1.26e-01   566s
 214   3.61916458e+10  3.70250084e+10  1.11e-05 1.76e-05  1.25e-01   568s
 215   3.61916437e+10  3.70250000e+10  1.11e-05 1.76e-05  1.25e-01   570s
 216   3.61916374e+10  3.70249418e+10  1.11e-05 1.76e-05  1.24e-01   571s
 217   3.61916089e+10  3.70248858e+10  1.09e-05 1.76e-05  1.22e-01   573s
 218   3.61915994e+10  3.70248213e+10  1.09e-05 1.75e-05  1.22e-01   575s
 219   3.61915953e+10  3.70247820e+10  1.14e-05 1.75e-05  1.21e-01   577s
 220   3.61915856e+10  3.70246285e+10  1.14e-05 1.75e-05  1.20e-01   578s
 221   3.61915844e+10  3.70246281e+10  1.14e-05 1.75e-05  1.20e-01   580s
 222   3.61915786e+10  3.70245831e+10  1.24e-05 1.75e-05  1.20e-01   581s
 223   3.61915440e+10  3.70245348e+10  1.24e-05 1.75e-05  1.18e-01   583s
 224   3.61915430e+10  3.70245314e+10  1.24e-05 1.75e-05  1.18e-01   585s
 225   3.61915370e+10  3.70244528e+10  1.24e-05 1.75e-05  1.17e-01   586s
 226   3.61915282e+10  3.70243873e+10  1.24e-05 1.74e-05  1.17e-01   589s
 227   3.61915137e+10  3.70243187e+10  1.18e-05 1.74e-05  1.16e-01   591s
 228   3.61914998e+10  3.70241348e+10  1.20e-05 1.74e-05  1.14e-01   595s
 229   3.61914454e+10  3.70239180e+10  1.24e-05 1.73e-05  1.10e-01   600s
 230   3.61914181e+10  3.70236165e+10  1.24e-05 1.73e-05  1.08e-01   604s
 231   3.61913999e+10  3.70235006e+10  1.34e-05 1.72e-05  1.07e-01   606s
 232   3.61913884e+10  3.70233608e+10  1.24e-05 1.72e-05  1.06e-01   608s
 233   3.61913720e+10  3.70232963e+10  1.24e-05 1.72e-05  1.05e-01   610s
 234   3.61913572e+10  3.70232542e+10  1.24e-05 1.72e-05  1.04e-01   612s
 235   3.61913509e+10  3.70232515e+10  1.24e-05 1.72e-05  1.04e-01   614s
 236   3.61913476e+10  3.70232317e+10  1.24e-05 1.71e-05  1.04e-01   616s
 237   3.61913064e+10  3.70231264e+10  1.24e-05 1.71e-05  1.02e-01   620s
 238   3.61912780e+10  3.70229590e+10  1.24e-05 1.71e-05  9.96e-02   623s
 239   3.61912468e+10  3.70227382e+10  1.24e-05 1.70e-05  9.73e-02   629s
 240   3.61912151e+10  3.70223416e+10  1.24e-05 1.69e-05  9.44e-02   633s
 241   3.61911907e+10  3.70221714e+10  1.24e-05 1.69e-05  9.27e-02   638s
 242   3.61911871e+10  3.70221759e+10  1.24e-05 1.69e-05  9.26e-02   640s
 243   3.61911603e+10  3.70220253e+10  1.24e-05 1.68e-05  9.09e-02   644s
 244   3.61911231e+10  3.70217990e+10  1.24e-05 1.68e-05  8.89e-02   646s
 245   3.61911013e+10  3.70216542e+10  1.24e-05 1.67e-05  8.76e-02   648s
 246   3.61910733e+10  3.70215858e+10  1.14e-05 1.67e-05  8.62e-02   650s
 247   3.61910661e+10  3.70215708e+10  1.14e-05 1.67e-05  8.58e-02   652s
 248   3.61910577e+10  3.70215027e+10  1.11e-05 1.67e-05  8.53e-02   653s
 249   3.61910475e+10  3.70214569e+10  1.11e-05 1.66e-05  8.49e-02   656s
 250   3.61910425e+10  3.70214360e+10  1.11e-05 1.66e-05  8.47e-02   658s
 251   3.61910406e+10  3.70214364e+10  1.20e-05 1.66e-05  8.46e-02   660s

Barrier performed 251 iterations in 659.70 seconds
Sub-optimal termination - objective 3.61912468e+10

Crossover log...

   20222 DPushes remaining with DInf 0.0000000e+00               663s
       0 DPushes remaining with DInf 6.8468262e-13               664s
Warning: Markowitz tolerance tightened to 0.5

  718316 PPushes remaining with PInf 0.0000000e+00               664s
  258779 PPushes remaining with PInf 0.0000000e+00               668s
  181699 PPushes remaining with PInf 0.0000000e+00               670s
  159401 PPushes remaining with PInf 0.0000000e+00               677s
  148947 PPushes remaining with PInf 0.0000000e+00               682s
  145616 PPushes remaining with PInf 0.0000000e+00               686s
  138178 PPushes remaining with PInf 0.0000000e+00               700s
  135107 PPushes remaining with PInf 0.0000000e+00               705s
  130274 PPushes remaining with PInf 0.0000000e+00               710s
  127351 PPushes remaining with PInf 0.0000000e+00               715s
  124963 PPushes remaining with PInf 0.0000000e+00               721s
  122472 PPushes remaining with PInf 0.0000000e+00               726s
  117468 PPushes remaining with PInf 0.0000000e+00               734s
  113714 PPushes remaining with PInf 0.0000000e+00               739s
